p cnf 91 377
1 2 3 24 -32 59 0
-3 -16 -19 -23 -89 91 0
7 8 9 -47 -48 64 0
12 -31 57 58 78 -79 0
2 3 24 -32 56 59 0
13 -31 57 58 -78 -79 0
1 42 46 60 83 0
1 -42 46 60 83 0
-2 -5 -6 -65 74 0
3 23 -50 51 68 0
-3 -16 -50 -68 -89 0
-4 52 -61 78 -84 0
-4 62 -63 82 84 0
7 8 9 -47 -48 0
7 9 -47 55 64 0
-7 -8 -42 -60 -83 0
11 12 -27 -31 57 0
13 49 67 85 91 0
19 23 -33 -76 -80 0
19 23 38 39 64 0
-42 45 46 -60 83 0
1 -21 -69 88 0
2 59 65 -74 0
3 50 66 89 0
-3 51 -68 -86 0
4 32 33 61 0
4 -51 67 68 0
-6 -35 36 82 0
7 45 55 64 0
9 -43 46 -87 0
10 12 26 -27 0
10 21 22 69 0
10 21 22 -69 0
10 21 -69 -72 0
10 -27 -28 -57 0
11 12 -19 -28 0
11 -30 -31 -73 0
-11 -15 76 80 0
12 14 78 79 0
12 14 -78 79 0
13 49 67 85 0
13 49 85 -86 0
13 67 85 91 0
-14 -73 78 79 0
-16 -49 -68 -85 0
17 -21 -72 -77 0
-17 -19 -41 -44 0
19 51 68 -91 0
20 -21 -69 -72 0
20 22 41 71 0
20 22 69 71 0
20 41 -54 -72 0
21 22 -69 88 0
21 -72 -77 88 0
23 25 27 32 0
23 25 56 59 0
23 -65 74 -75 0
25 -33 -76 -80 0
-38 47 -54 -70 0
49 51 -68 -86 0
50 66 67 -90 0
-53 70 -71 72 0
59 -61 -62 -74 0
1 3 59 -62 0
1 -42 60 -83 0
-2 -5 -6 74 0
-3 -19 -86 -90 0
4 23 -50 -51 0
-5 52 78 82 0
7 8 -48 64 0
7 45 46 60 0
9 -43 -47 55 0
17 -43 44 -77 0
-19 -23 25 80 0
-19 -23 30 36 0
-19 52 -78 -84 0
-19 -81 85 91 0
20 69 71 -72 0
21 22 -77 88 0
21 -69 70 -88 0
23 -75 76 -80 0
29 57 58 78 0
36 37 62 -63 0
-38 -54 -70 72 0
42 46 60 -87 0
1 2 -21 0
1 8 83 0
-1 -10 -70 0
-1 -83 -88 0
2 65 -74 0
-2 35 61 0
3 16 50 0
3 23 -26 0
-3 50 68 0
-3 50 91 0
4 56 -61 0
5 -36 63 0
-6 -24 -59 0
-7 -8 -83 0
-7 -45 -83 0
8 -21 -88 0
-8 -9 -55 0
-8 -9 -60 0
-8 46 48 0
9 39 47 0
9 47 -48 0
10 -28 -57 0
10 -60 83 0
-10 -11 -57 0
-10 -12 -57 0
-10 15 57 0
-10 -26 28 0
11 -27 34 0
-11 -19 -79 0
13 -86 -90 0
-13 -49 90 0
-13 68 -85 0
-14 -15 58 0
-14 58 -76 0
-14 -73 79 0
-16 67 68 0
17 23 39 0
-17 -39 -44 0
-17 44 77 0
18 54 64 0
-18 -19 -38 0
-18 22 -41 0
-18 22 -77 0
19 -30 -36 0
19 33 56 0
19 -65 -74 0
19 81 85 0
-19 -24 -25 0
-19 46 -53 0
20 53 -54 0
-20 70 77 0
22 -44 -77 0
-22 -41 -53 0
23 40 42 0
-23 -24 -56 0
-23 -28 -33 0
-23 -40 -43 0
-23 -60 -87 0
-23 85 -86 0
-24 35 -59 0
-24 61 62 0
25 -74 -76 0
-25 -27 -33 0
-25 -65 -74 0
-25 74 -76 0
26 28 -31 0
-26 31 57 0
27 -31 34 0
27 -34 -57 0
29 30 33 0
-29 30 73 0
30 -31 -73 0
-31 -33 -34 0
-31 -73 80 0
-36 -37 63 0
38 -54 72 0
-38 41 71 0
40 -42 -87 0
40 -43 45 0
-40 43 87 0
-41 70 -88 0
43 -44 77 0
43 -44 87 0
44 47 -48 0
44 -53 -71 0
-47 54 64 0
49 51 81 0
51 -81 91 0
54 64 -81 0
-58 76 80 0
66 86 -89 0
-66 86 90 0
-66 86 -90 0
-3 51 68 -89 0
-19 -23 -47 -48 0
-19 -23 -51 67 0
-49 51 -85 -91 0
69 71 -72 -77 0
1 2 0
1 9 0
1 27 0
1 -62 0
1 69 0
1 -69 0
1 77 0
1 -87 0
1 88 0
-1 -5 0
-1 -9 0
-1 32 0
-1 -36 0
-1 38 0
-1 -38 0
-1 -59 0
-1 73 0
-1 83 0
-1 90 0
2 3 0
2 5 0
2 52 0
2 56 0
-2 -6 0
-2 35 0
-2 -65 0
3 -16 0
3 27 0
3 28 0
3 33 0
3 -51 0
3 -91 0
-3 32 0
-3 -32 0
-3 35 0
-3 -50 0
-3 89 0
-3 -90 0
4 16 0
4 56 0
4 -61 0
4 63 0
4 -67 0
4 -68 0
4 82 0
4 -82 0
4 89 0
-4 52 0
-4 61 0
5 48 0
5 -62 0
5 78 0
5 -78 0
5 -82 0
5 -84 0
-5 37 0
-5 61 0
-5 -63 0
-5 84 0
6 35 0
6 -36 0
6 -62 0
6 -82 0
-6 -24 0
-6 -30 0
-6 37 0
-6 -59 0
7 40 0
7 -50 0
7 55 0
-7 -46 0
8 -10 0
8 31 0
8 -45 0
8 -46 0
8 -50 0
-8 10 0
-8 -10 0
-8 -42 0
-8 -55 0
-8 -64 0
-8 87 0
-8 88 0
9 64 0
-9 43 0
-9 -45 0
-9 -46 0
-9 -55 0
10 12 0
10 -21 0
10 22 0
10 26 0
10 -34 0
10 49 0
10 57 0
10 -60 0
10 -70 0
10 -72 0
10 83 0
-10 83 0
11 -12 0
11 14 0
11 -76 0
11 80 0
-11 -15 0
-11 31 0
-11 -58 0
12 -73 0
12 -79 0
12 84 0
-12 -13 0
-12 -15 0
-12 31 0
-12 -58 0
-12 73 0
-12 78 0
-12 -78 0
-12 79 0
-12 -79 0
13 -31 0
13 57 0
13 -86 0
13 -90 0
13 91 0
-13 -67 0
-13 -76 0
14 31 0
14 -70 0
14 73 0
14 -79 0
-14 -19 0
15 -29 0
15 31 0
15 -57 0
15 -58 0
15 -79 0
-15 29 0
16 -19 0
16 49 0
16 -56 0
-16 -50 0
-16 67 0
-16 -86 0
-16 90 0
17 19 0
17 22 0
17 40 0
17 -71 0
17 77 0
-17 -22 0
-17 -23 0
-17 -72 0
-17 -77 0
18 41 0
18 42 0
18 47 0
18 54 0
18 64 0
18 69 0
-18 -47 0
-18 -60 0
-18 -64 0
-18 -89 0
19 -26 0
19 32 0
19 -32 0
19 41 0
19 -50 0
19 -51 0
19 59 0
19 60 0
19 -68 0
19 69 0
19 75 0
-19 -26 0
-19 34 0
-19 -34 0
-19 -40 0
-19 -60 0
-19 65 0
-19 81 0
-19 84 0
-19 -85 0
-19 86 0
20 -21 0
20 53 0
20 -70 0
-20 -21 0
-20 -22 0
-20 70 0
-20 72 0
21 -42 0
21 -72 0
21 83 0
